p tdp 52 98
20 41
13 24
28 41
3 29
1 21
38 41
3 39
6 13
14 34
14 23
32 44
15 51
6 40
7 50
32 43
4 37
5 29
31 42
2 16
4 39
2 31
46 50
9 45
17 19
12 22
15 42
36 42
1 35
26 32
29 48
9 11
19 47
24 49
8 21
13 25
27 30
34 47
9 33
3 44
25 30
10 40
11 14
14 22
18 33
38 52
7 15
14 35
28 49
5 41
11 29
30 50
2 35
22 26
36 39
10 20
1 9
14 50
7 29
27 34
24 27
17 37
13 23
34 48
26 45
6 17
1 40
6 31
2 38
6 10
1 18
11 21
1 37
19 36
1 36
15 24
22 33
6 35
2 47
29 33
8 34
45 49
10 21
39 48
12 38
20 40
20 30
3 18
5 24
10 17
1 12
1 34
6 33
26 38
32 52
27 40
9 52
38 43
12 30
